data/MCDM/NO_CORR/GEN_FROM_60/15_ITEMS_1000_GEN/K5015W05.KNP.mps
NAME          BLANK   
ROWS
 N  OBJROW
 L  R0000000
COLUMNS
    C0000000  OBJROW     -593.         R0000000  990.        
    C0000001  OBJROW     -465.         R0000000  134.        
    C0000002  OBJROW     -482.         R0000000  980.        
    C0000003  OBJROW     -172.         R0000000  597.        
    C0000004  OBJROW     -183.         R0000000  758.        
    C0000005  OBJROW     -702.         R0000000  979.        
    C0000006  OBJROW     -356.         R0000000  789.        
    C0000007  OBJROW     -38.          R0000000  803.        
    C0000008  OBJROW     -460.         R0000000  509.        
    C0000009  OBJROW     -982.         R0000000  171.        
    C0000010  OBJROW     -76.          R0000000  320.        
    C0000011  OBJROW     -485.         R0000000  327.        
    C0000012  OBJROW     -862.         R0000000  780.        
    C0000013  OBJROW     -773.         R0000000  745.        
    C0000014  OBJROW     -259.         R0000000  375.        
RHS
    RHS       R0000000  16539.      
BOUNDS
 BV BOUND     C0000000  1.          
 BV BOUND     C0000001  1.          
 BV BOUND     C0000002  1.          
 BV BOUND     C0000003  1.          
 BV BOUND     C0000004  1.          
 BV BOUND     C0000005  1.          
 BV BOUND     C0000006  1.          
 BV BOUND     C0000007  1.          
 BV BOUND     C0000008  1.          
 BV BOUND     C0000009  1.          
 BV BOUND     C0000010  1.          
 BV BOUND     C0000011  1.          
 BV BOUND     C0000012  1.          
 BV BOUND     C0000013  1.          
 BV BOUND     C0000014  1.          
ENDATA
