data/MCDM/NO_CORR/GEN_FROM_60/15_ITEMS_1000_GEN/K5015W05.KNP.txt
N 15
M 16
LC 15
LC 16
LC 17
LC 18
LC 19
LC 20
LC 21
LC 22
LC 23
LC 24
LC 25
LC 26
LC 27
LC 28
LC 29
LR 1
LR 2
LR 3
LR 4
LR 5
LR 6
LR 7
LR 8
LR 9
LR 10
LR 11
LR 12
LR 13
LR 14
LR 15
LR 16
LO -593
LO -465
LO -482
LO -172
LO -183
LO -702
LO -356
LO -38
LO -460
LO -982
LO -76
LO -485
LO -862
LO -773
LO -259
OS 1
IC 589
IC 253
IC 293
IC 229
IC 6
IC 191
IC 476
IC 93
IC 91
IC 727
IC 420
IC 984
IC 138
IC 360
IC 380
IB 2615
